#\#CIF_2.0
# Created by the Bilbao Crystallographic Server
# http://www.cryst.ehu.es
# Date: 09/09/2022

data_5yOhtAoR
_audit_creation_date            2022-09-09
_audit_creation_method          "Bilbao Crystallographic Server"

_chemical_name_systematic
;
;
_chemical_name_common                    ?
_chemical_formula_moiety                 ?
_chemical_formula_structural             ?
_chemical_formula_analytical             ?
_chemical_formula_iupac                  ?
_chemical_formula_sum                    "Gd2 Pt2 O7"
_chemical_formula_weight                 ?
_chemical_melting_point                  ?
_chemical_compound_source                ?
_chemical_absolute_configuration         ?


_citation_journal_abbrev        "Phys. Rev. B"
_citation_journal_volume        105
_citation_page_first            .
_citation_page_last             .
_citation_article_id            094402
_citation_year                  2022
_citation_DOI                   10.1103/PhysRevB.105.094402

loop_
_citation_author_name
"P. G. Welch"
"J. A. M. Paddison"
"M. D. Le"
"J. S. Gardner"
"W.-T. Chen"
"A. R. Wildes"
"A. L. Goodwin"
"J. R. Stewart"

_temperature_position_structure         .
_temperature_atom_positions             298
_temperature_non-magn_atom_positions    .
_temperature_cell_parameters            0.05

_atomic_positions_source_database_code_ICSD  .
_atomic_positions_source_other               .

_transition_temperature     1.6
_experiment_temperature     0.05

loop_
_irrep_id
_irrep_dimension
_irrep_small_dimension
_irrep_direction_type
_irrep_action
_irrep_modes_number
_irrep_presence
mGM5 3 3 special primary 1 .

_exptl_crystal_magnetic_properties_details
;
NPD
Position structure from a measurement at room temperature
Cell parameter from the measurement at 0.05K
The magnetic structure is reported to be same as that of Gd2Sn2O7 (see #0.47)
;

_active_magnetic_irreps_details
;
1k magnetic structure
k-maximal magnetic symmetry
3-dim irrep along a special direction
;

_parent_space_group.name_H-M_alt  'F d -3 m'
_parent_space_group.IT_number                       227
_parent_space_group.transform_Pp_abc  'a,b,c;0,0,0'

loop_
_parent_propagation_vector.id
_parent_propagation_vector.kxkykz
k1 [0 0 0]

_parent_space_group.child_transform_Pp_abc  'a,b,c;0,0,0'
_space_group_magn.transform_BNS_Pp_abc  '1/2a-1/2b,1/2a+1/2b,c;1/4,1/4,1/2'

_space_group_magn.number_BNS  141.555
_space_group_magn.name_BNS  "I 4_1'/a m d'"
_space_group_magn.point_group_name  "4'/mm'm"
_space_group_magn.point_group_number  "15.4.56"
_cell_length_a                 10.26328(1)
_cell_length_b                 10.26328(1)
_cell_length_c                 10.26328(1)
_cell_angle_alpha              90.00
_cell_angle_beta               90.00
_cell_angle_gamma              90.00

loop_
_space_group_symop_magn_operation.id
_space_group_symop_magn_operation.xyz
1 x,y,z,+1 
2 -y,-x,-z,+1 
3 y+3/4,x+3/4,-z,+1 
4 -x+3/4,-y+3/4,z,+1 
5 -x+1/2,-y+1/2,-z,+1 
6 y+1/2,x+1/2,z,+1 
7 -y+1/4,-x+1/4,z,+1 
8 x+1/4,y+1/4,-z,+1 
9 -y+1/2,x+3/4,z+1/4,-1 
10 y+1/4,-x,z+1/4,-1 
11 x+1/2,-y+1/4,-z+3/4,-1 
12 -x+3/4,y,-z+3/4,-1 
13 y,-x+3/4,-z+3/4,-1 
14 -y+1/4,x+1/2,-z+3/4,-1 
15 -x,y+1/4,z+1/4,-1 
16 x+3/4,-y+1/2,z+1/4,-1 

loop_
_space_group_symop_magn_centering.id
_space_group_symop_magn_centering.xyz
1 x,y,z,+1 
2 x,y+1/2,z+1/2,+1 
3 x+1/2,y,z+1/2,+1 
4 x+1/2,y+1/2,z,+1 

loop_
_atom_site_label
_atom_site_type_symbol
_atom_site_fract_x
_atom_site_fract_y
_atom_site_fract_z
_atom_site_occupancy
Gd1 Gd 0.50000 0.50000 0.50000 1
Pt1 Pt 0.00000 0.00000 0.00000 1
O1_1 O 0.33646 0.12500 0.12500 1
O1_2 O 0.12500 0.12500 0.33646 1
O2 O 0.37500 0.37500 0.37500 1

loop_
_atom_site_moment.label
_atom_site_moment.crystalaxis_x
_atom_site_moment.crystalaxis_y
_atom_site_moment.crystalaxis_z
_atom_site_moment.symmform
_atom_site_moment.magnitude
_atom_site_moment.spherical_azimuthal
_atom_site_moment.spherical_polar
Gd1 4.78 -4.78 0.0 mx,-mx,0 6.76(2) ? ?

